%SETS
JOBS = 1..5;
MACHINES = 1..50;
SPEED    = 3;

time = array3d(JOBS,MACHINES,1..SPEED,[26, 6, 4, 26, 6, 4, 16, 3, 2, 1, 1, 1, 1, 1, 1, 4, 1, 1, 40, 10, 7, 4, 1, 1, 3, 1, 1, 11, 2, 2, 17, 4, 3, 30, 7, 5, 41, 10, 7, 8, 1, 1, 62, 15, 11, 1, 1, 1, 12, 2, 2, 5, 1, 1, 10, 2, 1, 15, 3, 2, 17, 4, 3, 13, 3, 2, 6, 1, 1, 6, 1, 1, 6, 1, 1, 33, 8, 6, 13, 3, 2, 22, 5, 4, 17, 4, 3, 14, 3, 2, 34, 8, 6, 21, 5, 3, 9, 2, 1, 91, 22, 16, 6, 1, 1, 3, 1, 1, 24, 6, 4, 17, 4, 3, 5, 1, 1, 2, 1, 1, 20, 4, 3, 8, 2, 1, 2, 1, 1, 17, 4, 3, 25, 6, 4, 1, 1, 1, 17, 4, 3, 2, 1, 1, 40, 9, 7, 36, 8, 6, 7, 1, 1, 2, 1, 1, 64, 15, 11, 18, 4, 3, 3, 1, 1, 3, 1, 1, 47, 11, 8, 20, 5, 3, 7, 1, 1, 22, 5, 3, 9, 2, 1, 40, 9, 7, 17, 4, 3, 86, 21, 15, 19, 4, 3, 60, 14, 10, 7, 1, 1, 19, 4, 3, 18, 4, 3, 43, 10, 7, 1, 1, 1, 46, 11, 8, 42, 10, 7, 13, 3, 2, 1, 1, 1, 37, 9, 6, 29, 7, 5, 65, 15, 11, 21, 5, 3, 88, 21, 15, 9, 2, 1, 10, 2, 1, 33, 8, 6, 31, 7, 5, 33, 8, 6, 58, 14, 10, 32, 7, 5, 29, 7, 5, 47, 11, 8, 26, 6, 4, 9, 2, 1, 45, 11, 8, 7, 1, 1, 31, 7, 5, 19, 4, 3, 12, 3, 2, 5, 1, 1, 56, 13, 10, 2, 1, 1, 42, 10, 7, 29, 7, 5, 16, 3, 2, 28, 6, 5, 8, 2, 1, 51, 12, 9, 5, 1, 1, 22, 5, 4, 16, 3, 2, 28, 7, 5, 16, 4, 3, 78, 19, 14, 49, 12, 8, 59, 14, 10, 1, 1, 1, 4, 1, 1, 16, 4, 3, 34, 8, 6, 11, 2, 2, 21, 5, 3, 1, 1, 1, 26, 6, 4, 29, 7, 5, 13, 3, 2, 3, 1, 1, 13, 3, 2, 34, 8, 6, 22, 5, 4, 55, 13, 10, 22, 5, 4, 5, 1, 1, 23, 5, 4, 1, 1, 1, 35, 8, 6, 5, 1, 1, 60, 14, 10, 16, 4, 2, 15, 3, 2, 3, 1, 1, 42, 10, 7, 64, 15, 11, 30, 7, 5, 28, 6, 5, 31, 7, 5, 35, 8, 6, 32, 7, 5, 3, 1, 1, 28, 6, 5, 62, 15, 11, 1, 1, 1, 5, 1, 1, 37, 9, 6, 1, 1, 1, 8, 2, 1, 50, 12, 9, 11, 2, 2, 59, 14, 10, 8, 2, 1, 12, 3, 2, 2, 1, 1, 43, 10, 7, 70, 17, 12, 5, 1, 1, 9, 2, 1, 29, 7, 5, 2, 1, 1, 1, 1, 1, 10, 2, 1, 12, 3, 2, 20, 5, 3, 20, 5, 3, 10, 2, 1, 14, 3, 2, 7, 1, 1, 5, 1, 1, 38, 9, 6, 3, 1, 1, 15, 3, 2, 3, 1, 1, 43, 10, 7, 47, 11, 8, 3, 1, 1, 33, 8, 5, 66, 16, 11, 12, 3, 2, 38, 9, 6, 66, 16, 11, 1, 1, 1, 8, 2, 1, 1, 1, 1, 5, 1, 1, 1, 1, 1, 1, 1, 1, 27, 6, 4, 8, 2, 1, 48, 11, 8, 10, 2, 1, 65, 16, 11, 3, 1, 1, 20, 5, 3, 9, 2, 1, 42, 10, 7, 10, 2, 1, 3, 1, 1, 15, 3, 2, 7, 1, 1, 35, 8, 6, 34, 8, 6, 1, 1, 1, 1, 1, 1, 64, 15, 11, 10, 2, 1, 9, 2, 1, 8, 2, 1, 7, 1, 1, 38, 9, 6, 7, 1, 1, 32, 8, 5, 28, 7, 5, 20, 5, 3, 29, 7, 5, 4, 1, 1, 16, 3, 2, 17, 4, 3, 1, 1, 1, 6, 1, 1, 70, 17, 12, 27, 6, 5, 99, 24, 17, 11, 2, 2, 37, 9, 6, 23, 5, 4, 23, 5, 4, 3, 1, 1, 6, 1, 1, 1, 1, 1, 18, 4, 3, 10, 2, 1, 5, 1, 1, 12, 2, 2, 19, 4, 3, 32, 7, 5, 23, 5, 4, 26, 6, 4, 23, 5, 4, 12, 2, 2, 10, 2, 1, 21, 5, 3, 35, 8, 6, 65, 15, 11, 45, 11, 8]);
energy = array3d(JOBS,MACHINES,1..SPEED,[77, 94, 96, 77, 94, 96, 85, 97, 98, 99, 99, 99, 99, 99, 99, 96, 99, 99, 67, 90, 93, 96, 99, 99, 97, 99, 99, 89, 98, 98, 84, 96, 97, 74, 93, 95, 66, 90, 93, 92, 99, 99, 53, 86, 89, 99, 99, 99, 88, 98, 98, 95, 99, 99, 90, 98, 99, 86, 97, 98, 84, 96, 97, 87, 97, 98, 94, 99, 99, 94, 99, 99, 94, 99, 99, 71, 92, 94, 87, 97, 98, 80, 95, 96, 84, 96, 97, 86, 97, 98, 71, 92, 94, 81, 95, 97, 91, 98, 99, 40, 80, 85, 94, 99, 99, 97, 99, 99, 78, 94, 96, 84, 96, 97, 95, 99, 99, 98, 99, 99, 81, 96, 97, 92, 98, 99, 98, 99, 99, 84, 96, 97, 77, 94, 96, 99, 99, 99, 84, 96, 97, 98, 99, 99, 67, 91, 93, 69, 92, 94, 93, 99, 99, 98, 99, 99, 52, 86, 89, 83, 96, 97, 97, 99, 99, 97, 99, 99, 62, 89, 92, 81, 95, 97, 93, 99, 99, 80, 95, 97, 91, 98, 99, 67, 91, 93, 84, 96, 97, 42, 81, 86, 82, 96, 97, 54, 86, 90, 93, 99, 99, 82, 96, 97, 83, 96, 97, 65, 90, 93, 99, 99, 99, 63, 89, 92, 65, 90, 93, 87, 97, 98, 99, 99, 99, 69, 91, 94, 74, 93, 95, 52, 86, 89, 81, 95, 97, 41, 81, 86, 91, 98, 99, 90, 98, 99, 71, 92, 94, 73, 93, 95, 71, 92, 94, 55, 86, 90, 72, 93, 95, 74, 93, 95, 62, 89, 92, 77, 94, 96, 91, 98, 99, 63, 89, 92, 93, 99, 99, 73, 93, 95, 82, 96, 97, 88, 97, 98, 95, 99, 99, 57, 87, 90, 98, 99, 99, 65, 90, 93, 74, 93, 95, 85, 97, 98, 75, 94, 95, 92, 98, 99, 60, 88, 91, 95, 99, 99, 80, 95, 96, 85, 97, 98, 75, 93, 95, 85, 96, 97, 45, 82, 86, 61, 88, 92, 55, 86, 90, 99, 99, 99, 96, 99, 99, 85, 96, 97, 71, 92, 94, 89, 98, 98, 81, 95, 97, 99, 99, 99, 77, 94, 96, 74, 93, 95, 87, 97, 98, 97, 99, 99, 87, 97, 98, 71, 92, 94, 80, 95, 96, 57, 87, 90, 80, 95, 96, 95, 99, 99, 79, 95, 96, 99, 99, 99, 70, 92, 94, 95, 99, 99, 54, 86, 90, 85, 96, 98, 86, 97, 98, 97, 99, 99, 65, 90, 93, 52, 86, 89, 74, 93, 95, 75, 94, 95, 73, 93, 95, 70, 92, 94, 72, 93, 95, 97, 99, 99, 75, 94, 95, 53, 86, 89, 99, 99, 99, 95, 99, 99, 69, 91, 94, 99, 99, 99, 92, 98, 99, 60, 88, 91, 89, 98, 98, 55, 86, 90, 92, 98, 99, 88, 97, 98, 98, 99, 99, 65, 90, 93, 49, 84, 88, 95, 99, 99, 91, 98, 99, 74, 93, 95, 98, 99, 99, 99, 99, 99, 90, 98, 99, 88, 97, 98, 81, 95, 97, 81, 95, 97, 90, 98, 99, 86, 97, 98, 93, 99, 99, 95, 99, 99, 68, 91, 94, 97, 99, 99, 86, 97, 98, 97, 99, 99, 65, 90, 93, 62, 89, 92, 97, 99, 99, 71, 92, 95, 51, 85, 89, 88, 97, 98, 68, 91, 94, 51, 85, 89, 99, 99, 99, 92, 98, 99, 99, 99, 99, 95, 99, 99, 99, 99, 99, 99, 99, 99, 76, 94, 96, 92, 98, 99, 61, 89, 92, 90, 98, 99, 52, 85, 89, 97, 99, 99, 81, 95, 97, 91, 98, 99, 65, 90, 93, 90, 98, 99, 97, 99, 99, 86, 97, 98, 93, 99, 99, 70, 92, 94, 71, 92, 94, 99, 99, 99, 99, 99, 99, 52, 86, 89, 90, 98, 99, 91, 98, 99, 92, 98, 99, 93, 99, 99, 68, 91, 94, 93, 99, 99, 72, 92, 95, 75, 93, 95, 81, 95, 97, 74, 93, 95, 96, 99, 99, 85, 97, 98, 84, 96, 97, 99, 99, 99, 94, 99, 99, 49, 84, 88, 76, 94, 95, 37, 78, 84, 89, 98, 98, 69, 91, 94, 79, 95, 96, 79, 95, 96, 97, 99, 99, 94, 99, 99, 99, 99, 99, 83, 96, 97, 90, 98, 99, 95, 99, 99, 88, 98, 98, 82, 96, 97, 72, 93, 95, 79, 95, 96, 77, 94, 96, 79, 95, 96, 88, 98, 98, 90, 98, 99, 81, 95, 97, 70, 92, 94, 52, 86, 89, 63, 89, 92]);
precedence = array2d(JOBS,MACHINES,[5, 33, 24, 17, 19, 37, 10, 7, 23, 12, 48, 34, 29, 14, 47, 31, 13, 40, 21, 39, 27, 20, 8, 35, 3, 44, 9, 2, 41, 38, 26, 28, 36, 16, 18, 0, 43, 6, 30, 42, 45, 49, 22, 32, 15, 11, 4, 25, 1, 46, 23, 36, 13, 6, 21, 12, 40, 15, 1, 9, 28, 30, 34, 38, 10, 2, 27, 39, 35, 3, 4, 44, 42, 5, 11, 14, 25, 20, 31, 41, 47, 26, 19, 45, 48, 16, 37, 18, 29, 17, 32, 7, 46, 33, 22, 49, 8, 0, 24, 43, 18, 14, 31, 19, 26, 12, 45, 39, 37, 13, 24, 4, 27, 23, 32, 28, 34, 8, 47, 42, 22, 49, 25, 0, 5, 40, 1, 48, 43, 36, 2, 44, 21, 15, 6, 41, 46, 17, 30, 10, 20, 3, 16, 7, 29, 11, 35, 38, 9, 33, 10, 11, 23, 22, 20, 34, 24, 16, 44, 0, 17, 5, 19, 29, 12, 49, 48, 27, 21, 6, 2, 33, 45, 8, 14, 47, 25, 1, 41, 36, 38, 40, 32, 43, 35, 31, 4, 28, 42, 9, 18, 7, 15, 26, 3, 30, 13, 37, 39, 46, 27, 8, 1, 43, 6, 46, 7, 39, 18, 23, 17, 19, 36, 40, 21, 4, 10, 12, 30, 41, 28, 37, 3, 5, 45, 0, 32, 31, 25, 24, 20, 42, 16, 48, 33, 29, 11, 47, 13, 35, 38, 14, 26, 44, 15, 9, 2, 22, 49, 34]);